Running VLSI (1).mzn with ins-36.dzn
height = 40
width = 15

x = [8, 9, 9, 8, 6, 5, 3, 3, 2, 1, 6, 2, 1, 1, 3, 0, 0, 0, 0, 0, 6, 0, 0, 5, 0]
y = [28, 9, 0, 21, 5, 24, 0, 10, 31, 0, 0, 26, 12, 19, 20, 30, 35, 26, 14, 0, 21, 6, 21, 20, 11]

W = [7, 6, 6, 7, 3, 3, 3, 3, 3, 2, 3, 3, 2, 2, 2, 2, 2, 2, 1, 1, 2, 1, 1, 1, 1]
H = [12, 12, 9, 7, 16, 16, 10, 10, 9, 12, 5, 5, 7, 7, 6, 5, 5, 4, 7, 6, 3, 5, 5, 4, 3]
----------
==========
%%%mzn-stat: initTime=0.07
%%%mzn-stat: solveTime=0.044
%%%mzn-stat: solutions=1
%%%mzn-stat: variables=5268
%%%mzn-stat: propagators=6812
%%%mzn-stat: propagations=73515
%%%mzn-stat: nodes=82
%%%mzn-stat: failures=29
%%%mzn-stat: restarts=0
%%%mzn-stat: peakDepth=52
%%%mzn-stat-end
Finished in 1s 175msec